30
1 6
1 7
1 8
1 9
1 10
1 11
1 12
1 13
1 15
1 16
1 22
1 23
1 25
1 27
1 28
1 30
2 4
2 5
2 7
2 10
2 11
2 12
2 13
2 16
2 17
2 19
2 22
2 27
2 28
2 29
3 6
3 8
3 10
3 15
3 21
3 22
3 24
3 26
3 27
3 29
3 30
4 5
4 6
4 10
4 11
4 12
4 17
4 20
4 22
4 23
4 24
4 26
4 27
4 28
4 29
5 6
5 7
5 11
5 13
5 15
5 21
5 24
5 25
5 26
5 27
5 30
6 8
6 9
6 10
6 12
6 14
6 15
6 16
6 23
6 25
6 26
6 29
7 9
7 11
7 14
7 16
7 17
7 18
7 19
7 22
7 28
7 30
8 14
8 15
8 16
8 21
8 22
8 23
8 24
8 25
8 27
8 28
8 29
9 12
9 13
9 15
9 18
9 19
9 27
9 29
10 11
10 12
10 14
10 19
10 21
10 23
10 26
10 27
10 28
10 29
10 30
11 12
11 15
11 17
11 21
11 25
12 13
12 14
12 15
12 16
12 20
12 22
12 23
12 25
12 26
12 27
12 28
13 15
13 16
13 20
13 21
13 23
13 25
13 27
13 28
13 29
13 30
14 15
14 16
14 17
14 21
14 22
14 24
14 27
14 28
14 29
15 16
15 17
15 19
15 21
15 22
15 24
15 25
15 26
15 30
16 18
16 19
16 21
16 22
16 25
16 26
16 27
16 30
17 18
17 19
17 20
17 21
17 24
17 25
17 30
18 20
18 21
18 24
18 26
18 29
19 20
19 21
19 22
19 25
19 26
19 27
19 28
19 29
19 30
20 21
20 27
21 22
21 23
21 24
21 26
21 27
21 28
21 29
21 30
22 23
23 24
23 25
23 27
23 28
23 30
24 26
24 27
24 28
24 29
24 30
25 26
25 30
27 28
27 29
27 30
28 29
28 30